\ Model master_model
\ LP format - for model browsing. Use MPS format to capture full model detail.
Minimize
  _Theta
Subject To
 R0: _f[291450206011012,Do_nothing] + _f[291450206011012,R1]
   + _f[291450206011012,R2] + _f[291450206011012,R3] = 1
 R1: _f[290970112004069,Do_nothing] + _f[290970112004069,R1]
   + _f[290970112004069,R2] + _f[290970112004069,R3] = 1
 R2: _f[290970109002051,Do_nothing] + _f[290970109002051,R1]
   + _f[290970109002051,R2] + _f[290970109002051,R3] = 1
 R3: _f[290970110005024,Do_nothing] + _f[290970110005024,R1]
   + _f[290970110005024,R2] + _f[290970110005024,R3] = 1
 R4: _f[290970108003014,Do_nothing] + _f[290970108003014,R1]
   + _f[290970108003014,R2] + _f[290970108003014,R3] = 1
 R5: _f[290970101001022,Do_nothing] + _f[290970101001022,R1]
   + _f[290970101001022,R2] + _f[290970101001022,R3] = 1
 R6: _f[290970106004001,Do_nothing] + _f[290970106004001,R1]
   + _f[290970106004001,R2] + _f[290970106004001,R3] = 1
 R7: _f[290970106003025,Do_nothing] + _f[290970106003025,R1]
   + _f[290970106003025,R2] + _f[290970106003025,R3] = 1
 R8: _f[290970102001050,Do_nothing] + _f[290970102001050,R1]
   + _f[290970102001050,R2] + _f[290970102001050,R3] = 1
 R9: _f[290970104003071,Do_nothing] + _f[290970104003071,R1]
   + _f[290970104003071,R2] + _f[290970104003071,R3] = 1
 R10: _Theta >= 0
 R11: 12981 _f[291450206011012,R1] + 16315 _f[291450206011012,R2]
   + 29284 _f[291450206011012,R3] + 8227 _f[290970112004069,R1]
   + 10339 _f[290970112004069,R2] + 18559 _f[290970112004069,R3]
   + 26390 _f[290970109002051,R1] + 33167 _f[290970109002051,R2]
   + 59534 _f[290970109002051,R3] + 2499 _f[290970110005024,R1]
   + 3140 _f[290970110005024,R2] + 5637 _f[290970110005024,R3]
   + 3761 _f[290970108003014,R1] + 4726 _f[290970108003014,R2]
   + 8484 _f[290970108003014,R3] + 3085 _f[290970101001022,R1]
   + 3877 _f[290970101001022,R2] + 6959 _f[290970101001022,R3]
   + 3241 _f[290970106004001,R1] + 4073 _f[290970106004001,R2]
   + 7311 _f[290970106004001,R3] + 7683 _f[290970106003025,R1]
   + 9657 _f[290970106003025,R2] + 17333 _f[290970106003025,R3]
   + 4909 _f[290970102001050,R1] + 6169 _f[290970102001050,R2]
   + 11073 _f[290970102001050,R3] + 9032 _f[290970104003071,R1]
   + 11352 _f[290970104003071,R2] + 20376 _f[290970104003071,R3]
   + 1.340499e+06 _r0[291450206011012,Do_nothing,Recover]
   + 1.340099e+06 _r0[291450206011012,R1,Recover]
   + 961468 _r0[291450206011012,R2,Recover]
   + 585369 _r0[291450206011012,R3,Recover]
   + 261190 _r0[290970112004069,Do_nothing,Recover]
   + 261112 _r0[290970112004069,R1,Recover]
   + 187337 _r0[290970112004069,R2,Recover]
   + 114056 _r0[290970112004069,R3,Recover]
   + 684624 _r0[290970109002051,Do_nothing,Recover]
   + 684420 _r0[290970109002051,R1,Recover]
   + 491044 _r0[290970109002051,R2,Recover]
   + 298961 _r0[290970109002051,R3,Recover]
   + 654504 _r0[290970110005024,Do_nothing,Recover]
   + 654309 _r0[290970110005024,R1,Recover]
   + 469441 _r0[290970110005024,R2,Recover]
   + 285809 _r0[290970110005024,R3,Recover]
   + 701538 _r0[290970108003014,Do_nothing,Recover]
   + 701329 _r0[290970108003014,R1,Recover]
   + 503176 _r0[290970108003014,R2,Recover]
   + 306347 _r0[290970108003014,R3,Recover]
   + 400526 _r0[290970101001022,Do_nothing,Recover]
   + 400407 _r0[290970101001022,R1,Recover]
   + 287276 _r0[290970101001022,R2,Recover]
   + 174902 _r0[290970101001022,R3,Recover]
   + 590995 _r0[290970106004001,Do_nothing,Recover]
   + 590818 _r0[290970106004001,R1,Recover]
   + 423889 _r0[290970106004001,R2,Recover]
   + 258075 _r0[290970106004001,R3,Recover]
   + 285251 _r0[290970106003025,Do_nothing,Recover]
   + 285166 _r0[290970106003025,R1,Recover]
   + 204596 _r0[290970106003025,R2,Recover]
   + 124563 _r0[290970106003025,R3,Recover]
   + 1.632938e+06 _r0[290970102001050,Do_nothing,Recover]
   + 1.632451e+06 _r0[290970102001050,R1,Recover]
   + 1.171219e+06 _r0[290970102001050,R2,Recover]
   + 713071 _r0[290970102001050,R3,Recover]
   + 1.202945e+06 _r0[290970104003071,Do_nothing,Recover]
   + 1.202586e+06 _r0[290970104003071,R1,Recover]
   + 862808 _r0[290970104003071,R2,Recover]
   + 525302 _r0[290970104003071,R3,Recover] <= 3e+07
 R12: - _f[291450206011012,Do_nothing]
   + _r0[291450206011012,Do_nothing,Do_nothing]
   + _r0[291450206011012,Do_nothing,Recover] = 0
 R13: - _f[291450206011012,R1] + _r0[291450206011012,R1,Do_nothing]
   + _r0[291450206011012,R1,Recover] = 0
 R14: - _f[291450206011012,R2] + _r0[291450206011012,R2,Do_nothing]
   + _r0[291450206011012,R2,Recover] = 0
 R15: - _f[291450206011012,R3] + _r0[291450206011012,R3,Do_nothing]
   + _r0[291450206011012,R3,Recover] = 0
 R16: - _f[290970112004069,Do_nothing]
   + _r0[290970112004069,Do_nothing,Do_nothing]
   + _r0[290970112004069,Do_nothing,Recover] = 0
 R17: - _f[290970112004069,R1] + _r0[290970112004069,R1,Do_nothing]
   + _r0[290970112004069,R1,Recover] = 0
 R18: - _f[290970112004069,R2] + _r0[290970112004069,R2,Do_nothing]
   + _r0[290970112004069,R2,Recover] = 0
 R19: - _f[290970112004069,R3] + _r0[290970112004069,R3,Do_nothing]
   + _r0[290970112004069,R3,Recover] = 0
 R20: - _f[290970109002051,Do_nothing]
   + _r0[290970109002051,Do_nothing,Do_nothing]
   + _r0[290970109002051,Do_nothing,Recover] = 0
 R21: - _f[290970109002051,R1] + _r0[290970109002051,R1,Do_nothing]
   + _r0[290970109002051,R1,Recover] = 0
 R22: - _f[290970109002051,R2] + _r0[290970109002051,R2,Do_nothing]
   + _r0[290970109002051,R2,Recover] = 0
 R23: - _f[290970109002051,R3] + _r0[290970109002051,R3,Do_nothing]
   + _r0[290970109002051,R3,Recover] = 0
 R24: - _f[290970110005024,Do_nothing]
   + _r0[290970110005024,Do_nothing,Do_nothing]
   + _r0[290970110005024,Do_nothing,Recover] = 0
 R25: - _f[290970110005024,R1] + _r0[290970110005024,R1,Do_nothing]
   + _r0[290970110005024,R1,Recover] = 0
 R26: - _f[290970110005024,R2] + _r0[290970110005024,R2,Do_nothing]
   + _r0[290970110005024,R2,Recover] = 0
 R27: - _f[290970110005024,R3] + _r0[290970110005024,R3,Do_nothing]
   + _r0[290970110005024,R3,Recover] = 0
 R28: - _f[290970108003014,Do_nothing]
   + _r0[290970108003014,Do_nothing,Do_nothing]
   + _r0[290970108003014,Do_nothing,Recover] = 0
 R29: - _f[290970108003014,R1] + _r0[290970108003014,R1,Do_nothing]
   + _r0[290970108003014,R1,Recover] = 0
 R30: - _f[290970108003014,R2] + _r0[290970108003014,R2,Do_nothing]
   + _r0[290970108003014,R2,Recover] = 0
 R31: - _f[290970108003014,R3] + _r0[290970108003014,R3,Do_nothing]
   + _r0[290970108003014,R3,Recover] = 0
 R32: - _f[290970101001022,Do_nothing]
   + _r0[290970101001022,Do_nothing,Do_nothing]
   + _r0[290970101001022,Do_nothing,Recover] = 0
 R33: - _f[290970101001022,R1] + _r0[290970101001022,R1,Do_nothing]
   + _r0[290970101001022,R1,Recover] = 0
 R34: - _f[290970101001022,R2] + _r0[290970101001022,R2,Do_nothing]
   + _r0[290970101001022,R2,Recover] = 0
 R35: - _f[290970101001022,R3] + _r0[290970101001022,R3,Do_nothing]
   + _r0[290970101001022,R3,Recover] = 0
 R36: - _f[290970106004001,Do_nothing]
   + _r0[290970106004001,Do_nothing,Do_nothing]
   + _r0[290970106004001,Do_nothing,Recover] = 0
 R37: - _f[290970106004001,R1] + _r0[290970106004001,R1,Do_nothing]
   + _r0[290970106004001,R1,Recover] = 0
 R38: - _f[290970106004001,R2] + _r0[290970106004001,R2,Do_nothing]
   + _r0[290970106004001,R2,Recover] = 0
 R39: - _f[290970106004001,R3] + _r0[290970106004001,R3,Do_nothing]
   + _r0[290970106004001,R3,Recover] = 0
 R40: - _f[290970106003025,Do_nothing]
   + _r0[290970106003025,Do_nothing,Do_nothing]
   + _r0[290970106003025,Do_nothing,Recover] = 0
 R41: - _f[290970106003025,R1] + _r0[290970106003025,R1,Do_nothing]
   + _r0[290970106003025,R1,Recover] = 0
 R42: - _f[290970106003025,R2] + _r0[290970106003025,R2,Do_nothing]
   + _r0[290970106003025,R2,Recover] = 0
 R43: - _f[290970106003025,R3] + _r0[290970106003025,R3,Do_nothing]
   + _r0[290970106003025,R3,Recover] = 0
 R44: - _f[290970102001050,Do_nothing]
   + _r0[290970102001050,Do_nothing,Do_nothing]
   + _r0[290970102001050,Do_nothing,Recover] = 0
 R45: - _f[290970102001050,R1] + _r0[290970102001050,R1,Do_nothing]
   + _r0[290970102001050,R1,Recover] = 0
 R46: - _f[290970102001050,R2] + _r0[290970102001050,R2,Do_nothing]
   + _r0[290970102001050,R2,Recover] = 0
 R47: - _f[290970102001050,R3] + _r0[290970102001050,R3,Do_nothing]
   + _r0[290970102001050,R3,Recover] = 0
 R48: - _f[290970104003071,Do_nothing]
   + _r0[290970104003071,Do_nothing,Do_nothing]
   + _r0[290970104003071,Do_nothing,Recover] = 0
 R49: - _f[290970104003071,R1] + _r0[290970104003071,R1,Do_nothing]
   + _r0[290970104003071,R1,Recover] = 0
 R50: - _f[290970104003071,R2] + _r0[290970104003071,R2,Do_nothing]
   + _r0[290970104003071,R2,Recover] = 0
 R51: - _f[290970104003071,R3] + _r0[290970104003071,R3,Do_nothing]
   + _r0[290970104003071,R3,Recover] = 0
Bounds
 _Theta free
Binaries
 _f[291450206011012,Do_nothing] _f[291450206011012,R1]
 _f[291450206011012,R2] _f[291450206011012,R3]
 _f[290970112004069,Do_nothing] _f[290970112004069,R1]
 _f[290970112004069,R2] _f[290970112004069,R3]
 _f[290970109002051,Do_nothing] _f[290970109002051,R1]
 _f[290970109002051,R2] _f[290970109002051,R3]
 _f[290970110005024,Do_nothing] _f[290970110005024,R1]
 _f[290970110005024,R2] _f[290970110005024,R3]
 _f[290970108003014,Do_nothing] _f[290970108003014,R1]
 _f[290970108003014,R2] _f[290970108003014,R3]
 _f[290970101001022,Do_nothing] _f[290970101001022,R1]
 _f[290970101001022,R2] _f[290970101001022,R3]
 _f[290970106004001,Do_nothing] _f[290970106004001,R1]
 _f[290970106004001,R2] _f[290970106004001,R3]
 _f[290970106003025,Do_nothing] _f[290970106003025,R1]
 _f[290970106003025,R2] _f[290970106003025,R3]
 _f[290970102001050,Do_nothing] _f[290970102001050,R1]
 _f[290970102001050,R2] _f[290970102001050,R3]
 _f[290970104003071,Do_nothing] _f[290970104003071,R1]
 _f[290970104003071,R2] _f[290970104003071,R3]
 _r0[291450206011012,Do_nothing,Do_nothing]
 _r0[291450206011012,Do_nothing,Recover] _r0[291450206011012,R1,Do_nothing]
 _r0[291450206011012,R1,Recover] _r0[291450206011012,R2,Do_nothing]
 _r0[291450206011012,R2,Recover] _r0[291450206011012,R3,Do_nothing]
 _r0[291450206011012,R3,Recover] _r0[290970112004069,Do_nothing,Do_nothing]
 _r0[290970112004069,Do_nothing,Recover] _r0[290970112004069,R1,Do_nothing]
 _r0[290970112004069,R1,Recover] _r0[290970112004069,R2,Do_nothing]
 _r0[290970112004069,R2,Recover] _r0[290970112004069,R3,Do_nothing]
 _r0[290970112004069,R3,Recover] _r0[290970109002051,Do_nothing,Do_nothing]
 _r0[290970109002051,Do_nothing,Recover] _r0[290970109002051,R1,Do_nothing]
 _r0[290970109002051,R1,Recover] _r0[290970109002051,R2,Do_nothing]
 _r0[290970109002051,R2,Recover] _r0[290970109002051,R3,Do_nothing]
 _r0[290970109002051,R3,Recover] _r0[290970110005024,Do_nothing,Do_nothing]
 _r0[290970110005024,Do_nothing,Recover] _r0[290970110005024,R1,Do_nothing]
 _r0[290970110005024,R1,Recover] _r0[290970110005024,R2,Do_nothing]
 _r0[290970110005024,R2,Recover] _r0[290970110005024,R3,Do_nothing]
 _r0[290970110005024,R3,Recover] _r0[290970108003014,Do_nothing,Do_nothing]
 _r0[290970108003014,Do_nothing,Recover] _r0[290970108003014,R1,Do_nothing]
 _r0[290970108003014,R1,Recover] _r0[290970108003014,R2,Do_nothing]
 _r0[290970108003014,R2,Recover] _r0[290970108003014,R3,Do_nothing]
 _r0[290970108003014,R3,Recover] _r0[290970101001022,Do_nothing,Do_nothing]
 _r0[290970101001022,Do_nothing,Recover] _r0[290970101001022,R1,Do_nothing]
 _r0[290970101001022,R1,Recover] _r0[290970101001022,R2,Do_nothing]
 _r0[290970101001022,R2,Recover] _r0[290970101001022,R3,Do_nothing]
 _r0[290970101001022,R3,Recover] _r0[290970106004001,Do_nothing,Do_nothing]
 _r0[290970106004001,Do_nothing,Recover] _r0[290970106004001,R1,Do_nothing]
 _r0[290970106004001,R1,Recover] _r0[290970106004001,R2,Do_nothing]
 _r0[290970106004001,R2,Recover] _r0[290970106004001,R3,Do_nothing]
 _r0[290970106004001,R3,Recover] _r0[290970106003025,Do_nothing,Do_nothing]
 _r0[290970106003025,Do_nothing,Recover] _r0[290970106003025,R1,Do_nothing]
 _r0[290970106003025,R1,Recover] _r0[290970106003025,R2,Do_nothing]
 _r0[290970106003025,R2,Recover] _r0[290970106003025,R3,Do_nothing]
 _r0[290970106003025,R3,Recover] _r0[290970102001050,Do_nothing,Do_nothing]
 _r0[290970102001050,Do_nothing,Recover] _r0[290970102001050,R1,Do_nothing]
 _r0[290970102001050,R1,Recover] _r0[290970102001050,R2,Do_nothing]
 _r0[290970102001050,R2,Recover] _r0[290970102001050,R3,Do_nothing]
 _r0[290970102001050,R3,Recover] _r0[290970104003071,Do_nothing,Do_nothing]
 _r0[290970104003071,Do_nothing,Recover] _r0[290970104003071,R1,Do_nothing]
 _r0[290970104003071,R1,Recover] _r0[290970104003071,R2,Do_nothing]
 _r0[290970104003071,R2,Recover] _r0[290970104003071,R3,Do_nothing]
 _r0[290970104003071,R3,Recover]
End
